p cnf 55 197
4 2 0
4 3 0
-2 -3 -4 0
1 4 -5 0
-1 -4 -5 0
1 -4 5 0
-1 4 5 0
7 -8 -9 0
-7 8 -9 0
7 8 9 0
-7 -8 9 0
10 6 0
10 9 0
-6 -9 -10 0
10 11 -12 0
-10 -11 -12 0
10 -11 12 0
-10 11 12 0
13 -8 0
13 -2 0
8 2 -13 0
-12 13 -14 0
12 -13 -14 0
-12 -13 14 0
12 13 14 0
15 5 0
15 -14 0
-5 14 -15 0
16 1 -17 0
-16 -1 -17 0
16 -1 17 0
-16 1 17 0
-18 -17 0
-18 4 0
17 -4 18 0
-19 16 0
-19 -7 0
-16 7 19 0
-20 13 0
-20 19 0
-13 -19 20 0
-21 18 0
-21 20 0
-18 -20 21 0
-22 21 0
-22 -10 0
-21 10 22 0
8 -3 -23 0
-8 3 -23 0
8 3 23 0
-8 -3 23 0
-24 23 0
-24 16 0
-23 -16 24 0
-3 8 -26 0
3 -8 -26 0
-3 -8 26 0
3 8 26 0
-27 26 0
-27 17 0
-26 -17 27 0
28 -25 0
28 27 0
25 -27 -28 0
24 -28 -29 0
-24 28 -29 0
24 28 29 0
-24 -28 29 0
-30 -22 0
-30 29 0
22 -29 30 0
-31 -19 0
-31 -27 0
19 27 31 0
-9 -32 -33 0
9 32 -33 0
-9 32 33 0
9 -32 33 0
-34 -16 0
-34 8 0
16 -8 34 0
35 34 0
35 32 0
-34 -32 -35 0
33 -35 -36 0
-33 35 -36 0
33 35 36 0
-33 -35 36 0
-37 19 0
-37 8 0
-19 -8 37 0
-9 -37 -38 0
9 37 -38 0
-9 37 38 0
9 -37 38 0
39 38 0
39 20 0
-38 -20 -39 0
3 11 -40 0
-3 -11 -40 0
3 -11 40 0
-3 11 40 0
-41 39 0
-41 -40 0
-39 40 41 0
-42 36 0
-42 41 0
-36 -41 42 0
-23 -6 -43 0
23 6 -43 0
-23 6 43 0
23 -6 43 0
-44 32 0
-44 34 0
-32 -34 44 0
45 43 0
45 -44 0
-43 44 -45 0
46 -6 0
46 -39 0
6 39 -46 0
47 45 0
47 46 0
-45 -46 -47 0
-48 -7 0
-48 -17 0
7 17 48 0
-49 12 0
-49 -27 0
-12 27 49 0
-48 49 -50 0
48 -49 -50 0
-48 -49 50 0
48 49 50 0
-47 50 -51 0
47 -50 -51 0
-47 -50 51 0
47 50 51 0
-52 -42 0
-52 51 0
42 -51 52 0
-31 -52 -53 0
31 52 -53 0
-31 52 53 0
31 -52 53 0
-54 30 0
-54 -53 0
-30 53 54 0
55 -15 0
55 -54 0
15 54 -55 0
14 12 21 37 0
35 49 0
46 -29 -48 -52 0
47 29 -32 -13 -21 0
18 44 9 13 -29 0
54 36 0
-53 -51 0
16 -19 -54 0
23 7 0
2 -11 0
53 54 0
51 46 -50 0
-24 -15 0
22 19 50 0
-17 -15 36 11 -37 -55 0
17 -10 0
23 45 31 10 0
-20 -30 12 11 54 0
22 -8 -34 0
-7 31 -42 -17 35 0
38 -9 -45 -21 18 25 0
53 -47 18 -36 11 0
-27 -50 21 2 3 39 0
-48 -21 22 0
40 -38 -43 9 -1 24 0
25 41 -37 51 0
-51 -12 0
-53 5 -18 38 0
20 -14 16 -46 0
-46 -11 5 -50 -32 0
23 45 -47 0
22 30 -20 -3 -42 0
-6 35 -15 45 0
-53 -24 26 -44 -38 0
-11 -48 26 -52 35 0
11 -29 -41 20 0
-35 18 -53 14 -15 0
-18 2 32 -27 0
41 11 -37 0
-17 33 40 31 14 0
-31 11 -6 51 32 0
44 -15 -17 20 1 0
-11 -15 -10 28 0
8 28 -10 23 0
21 27 -32 -44 43 4 0
55 0
